c Reduced graph for myciel5g generated by Cyril Grelier
p edge 47 236
e 1 4
e 1 5
e 1 13
e 1 14
e 1 18
e 1 21
e 1 22
e 1 26
e 1 32
e 1 37
e 1 40
e 1 42
e 2 3
e 2 8
e 2 14
e 2 21
e 2 27
e 2 34
e 2 35
e 2 37
e 2 38
e 2 39
e 2 42
e 2 46
e 3 11
e 3 12
e 3 16
e 3 17
e 3 22
e 3 23
e 3 24
e 3 26
e 3 45
e 4 7
e 4 11
e 4 15
e 4 23
e 4 27
e 4 30
e 4 34
e 4 35
e 4 39
e 5 11
e 5 12
e 5 16
e 5 23
e 5 24
e 5 30
e 5 35
e 5 39
e 5 45
e 6 11
e 6 12
e 6 16
e 6 21
e 6 22
e 6 23
e 6 26
e 6 37
e 7 10
e 7 12
e 7 14
e 7 21
e 7 22
e 7 25
e 8 10
e 8 11
e 8 12
e 8 22
e 8 24
e 9 10
e 9 11
e 9 13
e 9 21
e 9 34
e 10 16
e 10 17
e 10 18
e 10 19
e 10 20
e 10 23
e 10 26
e 10 27
e 10 30
e 10 31
e 10 32
e 10 33
e 10 37
e 10 39
e 10 40
e 10 42
e 10 43
e 10 45
e 10 46
e 10 47
e 11 14
e 11 18
e 11 19
e 11 20
e 11 25
e 11 28
e 11 29
e 11 32
e 11 33
e 11 38
e 11 41
e 11 42
e 11 43
e 11 44
e 11 46
e 11 47
e 12 13
e 12 15
e 12 18
e 12 20
e 12 27
e 12 28
e 12 31
e 12 34
e 12 36
e 12 40
e 12 47
e 13 16
e 13 19
e 13 24
e 13 25
e 13 29
e 13 30
e 13 35
e 13 38
e 13 39
e 13 43
e 13 44
e 13 45
e 13 46
e 14 15
e 14 17
e 14 23
e 14 24
e 14 30
e 14 31
e 14 36
e 14 45
e 15 16
e 15 19
e 15 21
e 15 22
e 15 25
e 15 26
e 15 32
e 15 37
e 15 42
e 16 28
e 16 34
e 16 36
e 17 21
e 17 34
e 17 35
e 17 38
e 18 24
e 18 35
e 19 34
e 19 36
e 20 21
e 20 22
e 21 24
e 21 28
e 21 29
e 21 30
e 21 31
e 21 33
e 21 36
e 21 41
e 21 43
e 21 44
e 21 45
e 21 47
e 22 27
e 22 29
e 22 30
e 22 34
e 22 35
e 22 38
e 22 39
e 22 43
e 22 46
e 23 25
e 23 28
e 23 29
e 23 38
e 23 41
e 23 44
e 24 27
e 24 34
e 24 37
e 24 40
e 24 42
e 25 27
e 25 31
e 25 34
e 25 36
e 25 40
e 26 29
e 26 34
e 26 35
e 26 38
e 27 41
e 27 44
e 28 35
e 28 37
e 28 39
e 29 37
e 29 40
e 31 35
e 31 38
e 32 34
e 32 35
e 33 34
e 33 35
e 34 41
e 34 44
e 34 45
e 35 36
e 35 40
e 35 41
e 35 47
e 36 37
e 36 38
e 36 39
e 36 42
e 36 46
e 37 41
e 37 44
e 38 40
e 39 41
e 40 44
